* ENCODING=ISO-8859-1
NAME          CPLEX
ROWS
 N  obj1    
 G  c1      
 G  c2      
 G  c3      
 G  c4      
 G  c5      
 G  c6      
 G  c7      
 G  c8      
 G  c9      
 G  c10     
 G  c11     
 G  c12     
 G  c13     
 G  c14     
 G  c15     
 G  c16     
 G  c17     
 G  c18     
 G  c19     
 G  c20     
 G  c21     
 G  c22     
 G  c23     
 G  c24     
 G  c25     
COLUMNS
    MARK0000  'MARKER'                 'INTORG'
    x1        obj1                            1
    x1        c6                            212
    x1        c18                           582
    x2        obj1                            1
    x2        c4                            223
    x2        c23                           191
    x3        obj1                            1
    x3        c14                           519
    x3        c21                           672
    x3        c23                           138
    x4        obj1                            1
    x4        c1                            315
    x4        c3                            134
    x4        c16                           230
    x4        c22                           969
    x4        c23                           517
    x5        obj1                            1
    x5        c2                            815
    x5        c5                            461
    x5        c10                           776
    x5        c13                           745
    x5        c14                           179
    x5        c16                           171
    x6        obj1                            1
    x6        c2                            259
    x6        c6                            937
    x6        c10                           962
    x6        c24                           783
    x7        obj1                            1
    x7        c8                            787
    x7        c12                           465
    x7        c16                           849
    x8        obj1                            1
    x8        c5                            436
    x8        c15                           853
    x8        c23                           579
    x9        obj1                            1
    x9        c11                           365
    x10       obj1                            1
    x10       c9                            937
    x10       c11                           686
    x10       c13                           433
    x11       obj1                            1
    x11       c13                           302
    x12       obj1                            1
    x12       c2                            707
    x13       obj1                            1
    x13       c14                           374
    x13       c25                           785
    x14       obj1                            1
    x14       c4                            669
    x14       c13                           878
    x14       c24                           626
    x15       obj1                            1
    x15       c1                            310
    x15       c2                            328
    x16       obj1                            1
    x16       c7                            979
    x16       c21                           403
    x17       obj1                            1
    x17       c17                           711
    x17       c23                           209
    x18       obj1                            1
    x18       c13                           959
    x18       c19                           213
    x19       obj1                            1
    x20       obj1                            1
    x20       c2                            732
    x20       c5                            809
    x20       c8                            449
    x20       c9                            914
    x20       c14                           966
    x20       c17                           110
    x20       c19                           706
    x21       obj1                            1
    x21       c14                           660
    x21       c19                           802
    x21       c21                           453
    x22       obj1                            1
    x22       c5                            481
    x22       c7                            971
    x22       c12                           454
    x23       obj1                            1
    x23       c8                            524
    x23       c9                            496
    x23       c15                           450
    x23       c23                           540
    x24       obj1                            1
    x24       c7                            169
    x24       c20                           477
    x25       obj1                            1
    x25       c1                            623
    x25       c6                            552
    x25       c17                           345
    x25       c22                           579
    x26       obj1                            1
    x27       obj1                            1
    x27       c11                           182
    x28       obj1                            1
    x28       c12                           367
    x28       c20                           713
    x28       c22                           271
    x29       obj1                            1
    x30       obj1                            1
    x30       c12                           408
    x30       c22                           331
    x31       obj1                            1
    x32       obj1                            1
    x32       c9                            452
    x32       c11                           247
    x32       c19                           982
    x33       obj1                            1
    x33       c25                           309
    x34       obj1                            1
    x34       c1                            540
    x34       c3                            166
    x34       c25                           586
    x35       obj1                            1
    x35       c5                            221
    x35       c10                           551
    x35       c18                           394
    x36       obj1                            1
    x36       c5                            417
    x36       c11                           451
    x36       c12                           527
    x36       c13                           645
    x36       c18                           150
    x37       obj1                            1
    x37       c2                            551
    x38       obj1                            1
    x38       c3                            270
    x38       c10                           436
    x39       obj1                            1
    x39       c7                            372
    x39       c14                           785
    x39       c19                           290
    x40       obj1                            1
    x40       c6                            911
    x40       c10                           355
    x40       c20                           532
    x41       obj1                            1
    x41       c23                           968
    x42       obj1                            1
    x42       c1                            746
    x42       c13                           454
    x42       c15                           836
    x42       c18                           781
    x42       c19                           108
    x42       c22                           890
    x43       obj1                            1
    x44       obj1                            1
    x44       c24                           295
    x45       obj1                            1
    x45       c11                           742
    x45       c12                           883
    x45       c20                           779
    x46       obj1                            1
    x46       c10                           295
    x47       obj1                            1
    x47       c4                            369
    x48       obj1                            1
    x48       c12                           604
    x49       obj1                            1
    x49       c2                            156
    x49       c20                           205
    x49       c25                           613
    x50       obj1                            1
    x50       c16                           228
    MARK0001  'MARKER'                 'INTEND'
RHS
    rhs       c1                           1267
    rhs       c2                           1774
    rhs       c3                            285
    rhs       c4                            631
    rhs       c5                           1413
    rhs       c6                           1306
    rhs       c7                           1246
    rhs       c8                            880
    rhs       c9                           1400
    rhs       c10                          1688
    rhs       c11                          1337
    rhs       c12                          1854
    rhs       c13                          2208
    rhs       c14                          1742
    rhs       c15                          1070
    rhs       c16                           739
    rhs       c17                           583
    rhs       c18                           954
    rhs       c19                          1551
    rhs       c20                          1353
    rhs       c21                           764
    rhs       c22                          1520
    rhs       c23                          1571
    rhs       c24                           852
    rhs       c25                          1147
BOUNDS
 LI bnd       x1        0
 LI bnd       x2        0
 LI bnd       x3        0
 LI bnd       x4        0
 LI bnd       x5        0
 LI bnd       x6        0
 LI bnd       x7        0
 LI bnd       x8        0
 LI bnd       x9        0
 LI bnd       x10       0
 LI bnd       x11       0
 LI bnd       x12       0
 LI bnd       x13       0
 LI bnd       x14       0
 LI bnd       x15       0
 LI bnd       x16       0
 LI bnd       x17       0
 LI bnd       x18       0
 LI bnd       x19       0
 LI bnd       x20       0
 LI bnd       x21       0
 LI bnd       x22       0
 LI bnd       x23       0
 LI bnd       x24       0
 LI bnd       x25       0
 LI bnd       x26       0
 LI bnd       x27       0
 LI bnd       x28       0
 LI bnd       x29       0
 LI bnd       x30       0
 LI bnd       x31       0
 LI bnd       x32       0
 LI bnd       x33       0
 LI bnd       x34       0
 LI bnd       x35       0
 LI bnd       x36       0
 LI bnd       x37       0
 LI bnd       x38       0
 LI bnd       x39       0
 LI bnd       x40       0
 LI bnd       x41       0
 LI bnd       x42       0
 LI bnd       x43       0
 LI bnd       x44       0
 LI bnd       x45       0
 LI bnd       x46       0
 LI bnd       x47       0
 LI bnd       x48       0
 LI bnd       x49       0
 LI bnd       x50       0
ENDATA
